100
128
4
48
62
11
60
13
49
45
39
9
43
58
61
38
37
42
36
7
17
13
14
61
25
59
36
36
11
56
38
29
25
44
13
12
24
32
51
58
11
54
3
34
30
13
50
25
19
45
12
32
54
14
55
12
27
15
45
6
61
47
12
2
15
38
29
19
21
52
16
2
33
42
11
35
51
3
21
28
20
56
43
19
14
21
34
21
3
32
48
2
27
5
25
17
45
19
13
2
2
58